784 1568
1 2 4
1 29 4
2 3 4
2 30 2
3 4 5
3 31 3
4 5 1
4 32 1
5 6 1
5 33 3
6 7 1
6 34 1
7 8 5
7 35 1
8 9 1
8 36 1
9 10 5
9 37 3
10 11 4
10 38 4
11 12 2
11 39 2
12 13 1
12 40 1
13 14 2
13 41 3
14 15 5
14 42 1
15 16 2
15 43 5
16 17 5
16 44 1
17 18 1
17 45 5
18 19 1
18 46 3
19 20 5
19 47 4
20 21 5
20 48 1
21 22 5
21 49 1
22 23 1
22 50 5
23 24 5
23 51 2
24 25 5
24 52 3
25 26 1
25 53 5
26 27 1
26 54 1
27 28 1
27 55 5
28 56 4
29 30 2
29 57 5
30 31 1
30 58 3
31 32 3
31 59 5
32 33 5
32 60 3
33 34 2
33 61 2
34 35 3
34 62 4
35 36 2
35 63 4
36 37 5
36 64 1
37 38 5
37 65 4
38 39 1
38 66 1
39 40 5
39 67 5
40 41 5
40 68 5
41 42 3
41 69 1
42 43 1
42 70 2
43 44 3
43 71 2
44 45 1
44 72 5
45 46 4
45 73 1
46 47 5
46 74 5
47 48 3
47 75 4
48 49 3
48 76 2
49 50 5
49 77 3
50 51 3
50 78 5
51 52 3
51 79 2
52 53 5
52 80 2
53 54 4
53 81 4
54 55 5
54 82 3
55 56 3
55 83 3
56 84 5
57 58 5
57 85 5
58 59 4
58 86 3
59 60 2
59 87 1
60 61 5
60 88 4
61 62 5
61 89 5
62 63 2
62 90 4
63 64 2
63 91 2
64 65 5
64 92 4
65 66 2
65 93 5
66 67 4
66 94 2
67 68 5
67 95 3
68 69 4
68 96 1
69 70 4
69 97 4
70 71 2
70 98 1
71 72 1
71 99 5
72 73 1
72 100 1
73 74 3
73 101 3
74 75 4
74 102 3
75 76 1
75 103 5
76 77 3
76 104 4
77 78 3
77 105 5
78 79 5
78 106 3
79 80 2
79 107 5
80 81 1
80 108 3
81 82 2
81 109 1
82 83 3
82 110 4
83 84 1
83 111 3
84 112 5
85 86 5
85 113 1
86 87 3
86 114 5
87 88 4
87 115 2
88 89 1
88 116 3
89 90 2
89 117 2
90 91 4
90 118 1
91 92 1
91 119 3
92 93 2
92 120 4
93 94 4
93 121 4
94 95 1
94 122 5
95 96 3
95 123 3
96 97 5
96 124 3
97 98 1
97 125 4
98 99 1
98 126 5
99 100 3
99 127 5
100 101 3
100 128 1
101 102 4
101 129 1
102 103 3
102 130 4
103 104 5
103 131 5
104 105 3
104 132 1
105 106 1
105 133 5
106 107 4
106 134 1
107 108 1
107 135 4
108 109 5
108 136 2
109 110 1
109 137 2
110 111 5
110 138 3
111 112 3
111 139 4
112 140 5
113 114 5
113 141 4
114 115 2
114 142 3
115 116 3
115 143 2
116 117 3
116 144 5
117 118 4
117 145 2
118 119 5
118 146 2
119 120 2
119 147 3
120 121 5
120 148 2
121 122 4
121 149 3
122 123 5
122 150 3
123 124 3
123 151 4
124 125 4
124 152 1
125 126 4
125 153 4
126 127 2
126 154 4
127 128 5
127 155 2
128 129 2
128 156 2
129 130 5
129 157 4
130 131 5
130 158 2
131 132 4
131 159 5
132 133 3
132 160 2
133 134 1
133 161 4
134 135 4
134 162 2
135 136 5
135 163 4
136 137 2
136 164 3
137 138 5
137 165 3
138 139 5
138 166 4
139 140 3
139 167 5
140 168 3
141 142 2
141 169 4
142 143 1
142 170 4
143 144 1
143 171 3
144 145 5
144 172 5
145 146 4
145 173 2
146 147 1
146 174 5
147 148 3
147 175 5
148 149 3
148 176 4
149 150 1
149 177 1
150 151 2
150 178 5
151 152 1
151 179 4
152 153 1
152 180 3
153 154 2
153 181 2
154 155 4
154 182 1
155 156 5
155 183 4
156 157 3
156 184 1
157 158 3
157 185 2
158 159 5
158 186 2
159 160 4
159 187 5
160 161 3
160 188 4
161 162 2
161 189 5
162 163 2
162 190 5
163 164 1
163 191 2
164 165 2
164 192 4
165 166 1
165 193 2
166 167 2
166 194 2
167 168 3
167 195 2
168 196 1
169 170 5
169 197 1
170 171 5
170 198 3
171 172 1
171 199 3
172 173 1
172 200 2
173 174 1
173 201 3
174 175 5
174 202 1
175 176 2
175 203 2
176 177 1
176 204 5
177 178 4
177 205 2
178 179 2
178 206 1
179 180 2
179 207 5
180 181 3
180 208 2
181 182 2
181 209 1
182 183 5
182 210 4
183 184 1
183 211 4
184 185 3
184 212 1
185 186 1
185 213 4
186 187 1
186 214 3
187 188 4
187 215 5
188 189 5
188 216 1
189 190 1
189 217 5
190 191 4
190 218 3
191 192 4
191 219 1
192 193 1
192 220 5
193 194 3
193 221 1
194 195 3
194 222 1
195 196 1
195 223 5
196 224 3
197 198 5
197 225 1
198 199 5
198 226 1
199 200 2
199 227 2
200 201 5
200 228 1
201 202 2
201 229 3
202 203 1
202 230 1
203 204 2
203 231 2
204 205 1
204 232 2
205 206 4
205 233 5
206 207 5
206 234 4
207 208 2
207 235 2
208 209 4
208 236 4
209 210 5
209 237 5
210 211 4
210 238 1
211 212 2
211 239 1
212 213 1
212 240 4
213 214 4
213 241 2
214 215 3
214 242 2
215 216 1
215 243 3
216 217 1
216 244 4
217 218 3
217 245 1
218 219 4
218 246 5
219 220 5
219 247 1
220 221 2
220 248 5
221 222 2
221 249 4
222 223 4
222 250 1
223 224 4
223 251 1
224 252 5
225 226 1
225 253 3
226 227 1
226 254 2
227 228 1
227 255 3
228 229 4
228 256 3
229 230 2
229 257 5
230 231 4
230 258 1
231 232 3
231 259 2
232 233 5
232 260 2
233 234 1
233 261 2
234 235 1
234 262 1
235 236 3
235 263 3
236 237 2
236 264 1
237 238 5
237 265 1
238 239 1
238 266 5
239 240 5
239 267 3
240 241 3
240 268 4
241 242 3
241 269 3
242 243 4
242 270 1
243 244 4
243 271 5
244 245 2
244 272 3
245 246 1
245 273 5
246 247 1
246 274 3
247 248 4
247 275 5
248 249 4
248 276 2
249 250 4
249 277 2
250 251 4
250 278 4
251 252 5
251 279 5
252 280 4
253 254 4
253 281 4
254 255 5
254 282 5
255 256 5
255 283 3
256 257 4
256 284 3
257 258 2
257 285 3
258 259 3
258 286 4
259 260 1
259 287 5
260 261 2
260 288 1
261 262 4
261 289 3
262 263 2
262 290 3
263 264 4
263 291 3
264 265 4
264 292 5
265 266 3
265 293 5
266 267 4
266 294 3
267 268 2
267 295 1
268 269 1
268 296 2
269 270 1
269 297 2
270 271 1
270 298 1
271 272 1
271 299 4
272 273 2
272 300 2
273 274 3
273 301 1
274 275 1
274 302 4
275 276 1
275 303 5
276 277 3
276 304 4
277 278 3
277 305 1
278 279 4
278 306 1
279 280 4
279 307 3
280 308 3
281 282 2
281 309 2
282 283 3
282 310 1
283 284 1
283 311 4
284 285 2
284 312 2
285 286 1
285 313 1
286 287 3
286 314 2
287 288 1
287 315 5
288 289 3
288 316 3
289 290 4
289 317 3
290 291 1
290 318 2
291 292 2
291 319 3
292 293 5
292 320 5
293 294 5
293 321 3
294 295 5
294 322 1
295 296 5
295 323 5
296 297 1
296 324 4
297 298 2
297 325 3
298 299 3
298 326 1
299 300 5
299 327 4
300 301 2
300 328 4
301 302 2
301 329 2
302 303 3
302 330 3
303 304 1
303 331 1
304 305 3
304 332 4
305 306 4
305 333 2
306 307 4
306 334 2
307 308 5
307 335 1
308 336 1
309 310 4
309 337 3
310 311 3
310 338 4
311 312 1
311 339 1
312 313 1
312 340 2
313 314 1
313 341 4
314 315 5
314 342 1
315 316 3
315 343 5
316 317 1
316 344 4
317 318 2
317 345 1
318 319 2
318 346 5
319 320 3
319 347 2
320 321 5
320 348 5
321 322 5
321 349 1
322 323 3
322 350 2
323 324 1
323 351 5
324 325 4
324 352 1
325 326 5
325 353 1
326 327 1
326 354 1
327 328 3
327 355 4
328 329 5
328 356 3
329 330 2
329 357 3
330 331 4
330 358 4
331 332 3
331 359 2
332 333 4
332 360 3
333 334 2
333 361 2
334 335 3
334 362 2
335 336 2
335 363 3
336 364 1
337 338 1
337 365 2
338 339 4
338 366 2
339 340 1
339 367 5
340 341 1
340 368 4
341 342 5
341 369 3
342 343 1
342 370 4
343 344 3
343 371 5
344 345 5
344 372 3
345 346 4
345 373 2
346 347 3
346 374 1
347 348 4
347 375 1
348 349 2
348 376 4
349 350 3
349 377 1
350 351 1
350 378 3
351 352 2
351 379 3
352 353 2
352 380 3
353 354 3
353 381 3
354 355 3
354 382 3
355 356 3
355 383 5
356 357 3
356 384 1
357 358 3
357 385 5
358 359 5
358 386 4
359 360 1
359 387 5
360 361 4
360 388 5
361 362 1
361 389 2
362 363 5
362 390 1
363 364 1
363 391 3
364 392 2
365 366 1
365 393 4
366 367 5
366 394 1
367 368 3
367 395 5
368 369 3
368 396 1
369 370 5
369 397 5
370 371 5
370 398 1
371 372 1
371 399 4
372 373 5
372 400 3
373 374 5
373 401 4
374 375 3
374 402 4
375 376 1
375 403 5
376 377 1
376 404 3
377 378 2
377 405 5
378 379 4
378 406 3
379 380 5
379 407 1
380 381 5
380 408 4
381 382 3
381 409 2
382 383 4
382 410 1
383 384 5
383 411 2
384 385 2
384 412 4
385 386 5
385 413 1
386 387 5
386 414 1
387 388 1
387 415 2
388 389 3
388 416 1
389 390 4
389 417 1
390 391 5
390 418 4
391 392 4
391 419 4
392 420 1
393 394 5
393 421 1
394 395 1
394 422 3
395 396 5
395 423 2
396 397 2
396 424 3
397 398 5
397 425 5
398 399 5
398 426 4
399 400 5
399 427 5
400 401 4
400 428 1
401 402 3
401 429 1
402 403 3
402 430 2
403 404 2
403 431 5
404 405 3
404 432 5
405 406 5
405 433 5
406 407 1
406 434 1
407 408 1
407 435 5
408 409 3
408 436 3
409 410 3
409 437 4
410 411 5
410 438 5
411 412 3
411 439 1
412 413 1
412 440 4
413 414 5
413 441 5
414 415 1
414 442 2
415 416 2
415 443 3
416 417 4
416 444 4
417 418 4
417 445 5
418 419 5
418 446 5
419 420 1
419 447 1
420 448 1
421 422 2
421 449 1
422 423 1
422 450 1
423 424 2
423 451 4
424 425 1
424 452 3
425 426 1
425 453 2
426 427 5
426 454 4
427 428 3
427 455 5
428 429 3
428 456 1
429 430 5
429 457 4
430 431 2
430 458 2
431 432 4
431 459 4
432 433 2
432 460 4
433 434 5
433 461 4
434 435 4
434 462 3
435 436 1
435 463 3
436 437 1
436 464 4
437 438 2
437 465 1
438 439 1
438 466 1
439 440 1
439 467 3
440 441 3
440 468 4
441 442 2
441 469 5
442 443 4
442 470 2
443 444 2
443 471 5
444 445 2
444 472 3
445 446 4
445 473 3
446 447 2
446 474 4
447 448 4
447 475 2
448 476 4
449 450 5
449 477 1
450 451 3
450 478 3
451 452 3
451 479 1
452 453 3
452 480 3
453 454 1
453 481 2
454 455 5
454 482 2
455 456 3
455 483 1
456 457 2
456 484 1
457 458 4
457 485 5
458 459 5
458 486 2
459 460 4
459 487 4
460 461 2
460 488 4
461 462 1
461 489 3
462 463 5
462 490 5
463 464 3
463 491 4
464 465 4
464 492 4
465 466 1
465 493 2
466 467 4
466 494 2
467 468 1
467 495 5
468 469 1
468 496 2
469 470 1
469 497 2
470 471 3
470 498 3
471 472 2
471 499 1
472 473 4
472 500 4
473 474 3
473 501 1
474 475 1
474 502 3
475 476 1
475 503 3
476 504 3
477 478 5
477 505 3
478 479 3
478 506 4
479 480 1
479 507 2
480 481 2
480 508 4
481 482 1
481 509 5
482 483 4
482 510 5
483 484 3
483 511 3
484 485 4
484 512 1
485 486 2
485 513 4
486 487 4
486 514 4
487 488 2
487 515 3
488 489 3
488 516 3
489 490 1
489 517 1
490 491 1
490 518 1
491 492 4
491 519 1
492 493 1
492 520 1
493 494 4
493 521 3
494 495 1
494 522 3
495 496 2
495 523 1
496 497 1
496 524 1
497 498 4
497 525 4
498 499 3
498 526 1
499 500 1
499 527 1
500 501 3
500 528 3
501 502 5
501 529 1
502 503 5
502 530 5
503 504 2
503 531 3
504 532 5
505 506 4
505 533 2
506 507 5
506 534 2
507 508 1
507 535 1
508 509 3
508 536 3
509 510 3
509 537 1
510 511 5
510 538 3
511 512 4
511 539 5
512 513 1
512 540 5
513 514 1
513 541 1
514 515 4
514 542 3
515 516 5
515 543 3
516 517 1
516 544 1
517 518 4
517 545 3
518 519 5
518 546 3
519 520 4
519 547 5
520 521 2
520 548 1
521 522 5
521 549 3
522 523 1
522 550 4
523 524 2
523 551 1
524 525 1
524 552 4
525 526 4
525 553 4
526 527 5
526 554 4
527 528 4
527 555 5
528 529 2
528 556 5
529 530 4
529 557 1
530 531 2
530 558 3
531 532 3
531 559 3
532 560 5
533 534 5
533 561 4
534 535 4
534 562 5
535 536 5
535 563 5
536 537 5
536 564 1
537 538 5
537 565 5
538 539 1
538 566 2
539 540 5
539 567 5
540 541 3
540 568 1
541 542 5
541 569 2
542 543 2
542 570 3
543 544 2
543 571 3
544 545 1
544 572 3
545 546 1
545 573 1
546 547 2
546 574 4
547 548 2
547 575 1
548 549 2
548 576 1
549 550 5
549 577 4
550 551 4
550 578 2
551 552 5
551 579 1
552 553 3
552 580 5
553 554 1
553 581 1
554 555 1
554 582 3
555 556 5
555 583 4
556 557 1
556 584 1
557 558 1
557 585 2
558 559 3
558 586 3
559 560 2
559 587 4
560 588 5
561 562 1
561 589 5
562 563 2
562 590 4
563 564 4
563 591 3
564 565 3
564 592 1
565 566 5
565 593 5
566 567 5
566 594 5
567 568 4
567 595 1
568 569 1
568 596 5
569 570 1
569 597 2
570 571 4
570 598 5
571 572 2
571 599 3
572 573 3
572 600 5
573 574 4
573 601 4
574 575 4
574 602 2
575 576 5
575 603 4
576 577 1
576 604 5
577 578 2
577 605 1
578 579 3
578 606 4
579 580 3
579 607 3
580 581 1
580 608 2
581 582 2
581 609 2
582 583 5
582 610 2
583 584 2
583 611 2
584 585 5
584 612 3
585 586 5
585 613 4
586 587 4
586 614 5
587 588 3
587 615 1
588 616 1
589 590 3
589 617 2
590 591 2
590 618 4
591 592 4
591 619 4
592 593 2
592 620 4
593 594 1
593 621 5
594 595 2
594 622 1
595 596 3
595 623 2
596 597 1
596 624 2
597 598 1
597 625 3
598 599 3
598 626 2
599 600 5
599 627 1
600 601 5
600 628 4
601 602 4
601 629 4
602 603 3
602 630 4
603 604 2
603 631 5
604 605 1
604 632 4
605 606 4
605 633 1
606 607 1
606 634 5
607 608 1
607 635 3
608 609 5
608 636 5
609 610 5
609 637 4
610 611 1
610 638 1
611 612 1
611 639 1
612 613 1
612 640 5
613 614 2
613 641 3
614 615 3
614 642 2
615 616 3
615 643 3
616 644 5
617 618 4
617 645 2
618 619 4
618 646 1
619 620 5
619 647 2
620 621 2
620 648 3
621 622 2
621 649 1
622 623 2
622 650 3
623 624 3
623 651 1
624 625 5
624 652 2
625 626 1
625 653 2
626 627 3
626 654 4
627 628 2
627 655 2
628 629 4
628 656 2
629 630 3
629 657 1
630 631 1
630 658 2
631 632 1
631 659 1
632 633 1
632 660 5
633 634 3
633 661 5
634 635 1
634 662 1
635 636 1
635 663 3
636 637 1
636 664 3
637 638 1
637 665 5
638 639 4
638 666 2
639 640 5
639 667 2
640 641 4
640 668 4
641 642 5
641 669 3
642 643 5
642 670 4
643 644 3
643 671 1
644 672 2
645 646 2
645 673 4
646 647 2
646 674 2
647 648 4
647 675 3
648 649 5
648 676 4
649 650 2
649 677 1
650 651 1
650 678 3
651 652 2
651 679 3
652 653 1
652 680 1
653 654 4
653 681 2
654 655 5
654 682 3
655 656 3
655 683 5
656 657 2
656 684 4
657 658 4
657 685 4
658 659 4
658 686 3
659 660 4
659 687 5
660 661 2
660 688 4
661 662 3
661 689 2
662 663 5
662 690 2
663 664 2
663 691 1
664 665 3
664 692 1
665 666 3
665 693 5
666 667 5
666 694 2
667 668 5
667 695 5
668 669 3
668 696 1
669 670 1
669 697 2
670 671 3
670 698 4
671 672 2
671 699 3
672 700 4
673 674 4
673 701 1
674 675 4
674 702 1
675 676 4
675 703 5
676 677 5
676 704 2
677 678 4
677 705 3
678 679 4
678 706 5
679 680 2
679 707 2
680 681 4
680 708 1
681 682 3
681 709 1
682 683 3
682 710 1
683 684 2
683 711 3
684 685 5
684 712 1
685 686 4
685 713 5
686 687 4
686 714 1
687 688 1
687 715 5
688 689 3
688 716 5
689 690 4
689 717 3
690 691 2
690 718 3
691 692 2
691 719 2
692 693 1
692 720 1
693 694 4
693 721 5
694 695 1
694 722 2
695 696 2
695 723 4
696 697 3
696 724 4
697 698 3
697 725 5
698 699 5
698 726 1
699 700 2
699 727 1
700 728 1
701 702 2
701 729 4
702 703 2
702 730 2
703 704 2
703 731 5
704 705 4
704 732 4
705 706 3
705 733 5
706 707 5
706 734 4
707 708 5
707 735 3
708 709 4
708 736 3
709 710 2
709 737 2
710 711 3
710 738 1
711 712 5
711 739 4
712 713 3
712 740 4
713 714 3
713 741 3
714 715 1
714 742 5
715 716 4
715 743 3
716 717 1
716 744 3
717 718 4
717 745 1
718 719 3
718 746 4
719 720 5
719 747 2
720 721 1
720 748 2
721 722 1
721 749 2
722 723 3
722 750 2
723 724 5
723 751 3
724 725 3
724 752 2
725 726 2
725 753 3
726 727 1
726 754 4
727 728 1
727 755 2
728 756 5
729 730 4
729 757 3
730 731 2
730 758 3
731 732 4
731 759 4
732 733 5
732 760 3
733 734 5
733 761 4
734 735 5
734 762 4
735 736 4
735 763 2
736 737 1
736 764 3
737 738 4
737 765 4
738 739 4
738 766 1
739 740 4
739 767 2
740 741 1
740 768 5
741 742 5
741 769 1
742 743 1
742 770 1
743 744 2
743 771 5
744 745 1
744 772 1
745 746 2
745 773 4
746 747 3
746 774 4
747 748 4
747 775 1
748 749 1
748 776 4
749 750 3
749 777 2
750 751 2
750 778 4
751 752 3
751 779 2
752 753 4
752 780 5
753 754 3
753 781 3
754 755 1
754 782 2
755 756 4
755 783 4
756 784 4
757 758 1
758 759 5
759 760 1
760 761 4
761 762 3
762 763 1
763 764 2
764 765 3
765 766 4
766 767 3
767 768 1
768 769 4
769 770 2
770 771 1
771 772 1
772 773 3
773 774 2
774 775 3
775 776 3
776 777 1
777 778 2
778 779 4
779 780 3
780 781 3
781 782 1
782 783 3
783 784 1
1 757 1
2 758 4
3 759 4
4 760 3
5 761 5
6 762 4
7 763 5
8 764 2
9 765 2
10 766 4
11 767 4
12 768 1
13 769 3
14 770 5
15 771 3
16 772 3
17 773 5
18 774 1
19 775 5
20 776 4
21 777 4
22 778 1
23 779 3
24 780 5
25 781 3
26 782 1
27 783 4
28 784 3
1 28 1
29 56 5
57 84 4
85 112 5
113 140 1
141 168 2
169 196 4
197 224 3
225 252 3
253 280 3
281 308 2
309 336 5
337 364 2
365 392 3
393 420 5
421 448 5
449 476 5
477 504 1
505 532 1
533 560 4
561 588 5
589 616 3
617 644 3
645 672 4
673 700 5
701 728 1
729 756 2
757 784 3
